(set-logic HORN)
(set-info :source |
    Benchmark: C_VC
    Output by Princess (http://www.philipp.ruemmer.org/princess.shtml)
|)
(set-info :status sat)
(declare-heap Heap Addr HeapObject
 defObj
 ((HeapObject 0)) (
  (
   (O_Int (getInt Int))
   (O_UInt (getUInt Int))
   (O_Addr (getAddr Addr))
   (defObj)
  )
))
(declare-fun inv_main15 (Heap Int Int Int AddrRange) Bool)
(declare-fun inv_main18 (Heap Int Int Int AddrRange) Bool)
(declare-fun inv_main2 (Heap Int Int) Bool)
(declare-fun inv_main32 (Heap Int Int Int AddrRange) Bool)
(declare-fun inv_main35 (Heap Int Int Int AddrRange) Bool)
(declare-fun inv_main36 (Heap Int Int Int AddrRange) Bool)
(declare-fun inv_main39 (Heap Int Int Int AddrRange) Bool)
(declare-fun inv_main43 (Heap Int Int Int AddrRange) Bool)
(assert (inv_main2 emptyHeap 0 100000))
(assert (forall ((var0 AddrRange) (var1 Int) (var2 Int) (var3 Int) (var4 Heap)) (or (not (and (inv_main15 var4 var3 var2 var1 var0) (<= 0 (+ (+ var3 (* (- 1) var1)) (- 1))))) (inv_main18 var4 var3 var2 var1 var0))))
(assert (forall ((var0 AddrRange) (var1 Int) (var2 Int) (var3 Heap) (var4 Int) (var5 Int) (var6 AddrRange) (var7 Int) (var8 Int) (var9 Int) (var10 Heap)) (or (not (and (inv_main35 var10 var9 var8 var7 var6) (and (and (<= 0 (+ (+ var5 (* (- 1) (+ (* 2 var4) (- 1)))) (- 1))) (is-O_Int (read var10 (nthAddrRange var6 (+ (* 2 var7) (- 1)))))) (and (and (and (and (and (= var3 var10) (= var2 var9)) (= var1 var8)) (= var4 var7)) (= var0 var6)) (= var5 (getInt (read var10 (nthAddrRange var6 (+ (* 2 var7) (- 1)))))))))) (inv_main39 var3 var2 var1 var4 var0))))
(assert (forall ((var0 AddrRange) (var1 Int) (var2 Int) (var3 Heap) (var4 Int) (var5 Int) (var6 AddrRange) (var7 Int) (var8 Int) (var9 Int) (var10 Heap)) (or (not (and (inv_main32 var10 var9 var8 var7 var6) (and (and (<= 0 (+ (+ var5 (* (- 1) (+ (* 2 var4) (- 2)))) (- 1))) (is-O_Int (read var10 (nthAddrRange var6 (+ (* 2 var7) (- 2)))))) (and (and (and (and (and (= var3 var10) (= var2 var9)) (= var1 var8)) (= var4 var7)) (= var0 var6)) (= var5 (getInt (read var10 (nthAddrRange var6 (+ (* 2 var7) (- 2)))))))))) (inv_main36 var3 var2 var1 var4 var0))))
(assert (forall ((var0 AddrRange) (var1 Int) (var2 Int) (var3 Int) (var4 Int) (var5 Heap) (var6 AddrRange) (var7 Int) (var8 Int) (var9 Int) (var10 Heap)) (or (not (and (inv_main18 var10 var9 var8 var7 var6) (and (and (is-O_Int (read var10 (nthAddrRange var6 var7))) (is-O_Int (read var10 (nthAddrRange var6 var7)))) (and (and (and (and (= var5 (write var10 (nthAddrRange var6 var7) (O_Int var4))) (= var3 var9)) (= var2 var8)) (= var1 var7)) (= var0 var6))))) (inv_main15 var5 var3 var2 (+ var1 1) var0))))
(assert (forall ((var0 Int) (var1 Int) (var2 AddrRange) (var3 Int) (var4 Int) (var5 Int) (var6 Int) (var7 Int) (var8 Int) (var9 Int) (var10 Heap) (var11 Heap) (var12 Int) (var13 Int) (var14 Heap)) (or (not (and (inv_main2 var14 var13 var12) (and (and (and (and (and (= var11 (newBatchHeap (batchAlloc var10 (O_Int var9) var8))) (= var7 var8)) (= var6 var5)) (= var4 var3)) (= var2 (newAddrRange (batchAlloc var10 (O_Int var9) var8)))) (and (not (= var1 0)) (and (<= 0 (+ (+ var0 (- 1)) (- 1))) (and (and (and (= var10 var14) (= var8 var0)) (= var5 var12)) (or (and (<= 0 (+ (+ var12 (* (- 1) var0)) (- 1))) (= var1 1)) (and (not (<= 0 (+ (+ var12 (* (- 1) var0)) (- 1)))) (= var1 0))))))))) (inv_main15 var11 var7 var6 0 var2))))
(assert (forall ((var0 AddrRange) (var1 Int) (var2 Int) (var3 Int) (var4 Heap)) (or (not (and (inv_main36 var4 var3 var2 var1 var0) (and (is-O_Int (read var4 (nthAddrRange var0 (+ (* 2 var1) (- 2))))) (is-O_Int (read var4 (nthAddrRange var0 (+ (* 2 var1) (- 2)))))))) (inv_main35 (write var4 (nthAddrRange var0 (+ (* 2 var1) (- 2))) (O_Int (+ (* 2 var1) (- 2)))) var3 var2 var1 var0))))
(assert (forall ((var0 AddrRange) (var1 Int) (var2 Int) (var3 Heap) (var4 Int) (var5 Int) (var6 AddrRange) (var7 Int) (var8 Int) (var9 Int) (var10 Heap)) (or (not (and (inv_main32 var10 var9 var8 var7 var6) (and (and (not (<= 0 (+ (+ var5 (* (- 1) (+ (* 2 var4) (- 2)))) (- 1)))) (is-O_Int (read var10 (nthAddrRange var6 (+ (* 2 var7) (- 2)))))) (and (and (and (and (and (= var3 var10) (= var2 var9)) (= var1 var8)) (= var4 var7)) (= var0 var6)) (= var5 (getInt (read var10 (nthAddrRange var6 (+ (* 2 var7) (- 2)))))))))) (inv_main35 var3 var2 var1 var4 var0))))
(assert (forall ((var0 AddrRange) (var1 Int) (var2 Int) (var3 Int) (var4 Heap)) (or (not (and (inv_main43 var4 var3 var2 var1 var0) (and (<= 0 (+ (+ var3 (* (- 1) (+ var1 1))) (- 1))) (is-O_Int (read var4 (nthAddrRange var0 var1)))))) (inv_main43 var4 var3 var2 (+ var1 1) var0))))
(assert (forall ((var0 AddrRange) (var1 Int) (var2 Int) (var3 Heap) (var4 Int) (var5 Int) (var6 AddrRange) (var7 Int) (var8 Int) (var9 Int) (var10 Heap) (var11 Int) (var12 Int) (var13 Int) (var14 Int) (var15 Int) (var16 Int) (var17 Int)) (or (not (and (inv_main15 var10 var9 var8 var7 var6) (and (<= 0 (+ var5 (- 1))) (and (not (or (not (and (and (and (<= 0 (+ (+ 2 (* (- 1) (+ var5 (* (- 2) var11)))) (- 1))) (<= 0 (+ (+ 2 (* 1 (+ var5 (* (- 2) var11)))) (- 1)))) (or (not (<= 0 (+ (+ var5 (* (- 2) var11)) (- 1)))) (<= 0 (+ var5 (- 1))))) (or (not (<= 0 (+ (* (- 1) (+ var5 (* (- 2) var11))) (- 1)))) (<= 0 (+ (* (- 1) var5) (- 1)))))) (<= 0 (+ var11 (- 1))))) (and (and (not (= var4 0)) (and (and (and (and (and (= var3 var10) (= var5 var9)) (= var2 var8)) (= var1 var7)) (= var0 var6)) (or (and (and (and (and (and (and (<= 0 (+ (+ 2 (* (- 1) var12)) (- 1))) (<= 0 (+ (+ 2 (* 1 var12)) (- 1)))) (or (not (<= 0 (+ var12 (- 1)))) (<= 0 (+ var9 (- 1))))) (or (not (<= 0 (+ (* (- 1) var12) (- 1)))) (<= 0 (+ (* (- 1) var9) (- 1))))) (= var9 (+ (* 2 var13) var12))) (= var12 0)) (= var4 1)) (and (not (or (not (and (and (and (and (<= 0 (+ (+ 2 (* (- 1) var14)) (- 1))) (<= 0 (+ (+ 2 (* 1 var14)) (- 1)))) (or (not (<= 0 (+ var14 (- 1)))) (<= 0 (+ var9 (- 1))))) (or (not (<= 0 (+ (* (- 1) var14) (- 1)))) (<= 0 (+ (* (- 1) var9) (- 1))))) (= var9 (+ (* 2 var15) var14)))) (= var14 0))) (= var4 0))))) (and (and (and (and (and (and (<= 0 (+ (+ 2 (* (- 1) var16)) (- 1))) (<= 0 (+ (+ 2 (* 1 var16)) (- 1)))) (or (not (<= 0 (+ var16 (- 1)))) (<= 0 (+ var9 (- 1))))) (or (not (<= 0 (+ (* (- 1) var16) (- 1)))) (<= 0 (+ (* (- 1) var9) (- 1))))) (= var9 (+ (* 2 var17) var16))) (= var16 0)) (not (<= 0 (+ (+ var9 (* (- 1) var7)) (- 1)))))))))) (inv_main43 var3 var5 var2 0 var0))))
(assert (forall ((var0 AddrRange) (var1 Int) (var2 Heap) (var3 Int) (var4 Int) (var5 AddrRange) (var6 Int) (var7 Int) (var8 Int) (var9 Heap) (var10 Int)) (or (not (and (inv_main39 var9 var8 var7 var6 var5) (and (<= 0 (+ var4 (- 1))) (and (and (not (or (not (and (and (and (<= 0 (+ (+ 2 (* (- 1) (+ var4 (* (- 2) var10)))) (- 1))) (<= 0 (+ (+ 2 (* 1 (+ var4 (* (- 2) var10)))) (- 1)))) (or (not (<= 0 (+ (+ var4 (* (- 2) var10)) (- 1)))) (<= 0 (+ var4 (- 1))))) (or (not (<= 0 (+ (* (- 1) (+ var4 (* (- 2) var10))) (- 1)))) (<= 0 (+ (* (- 1) var4) (- 1)))))) (<= 0 (+ var10 (* (- 1) (+ var3 1)))))) (and (is-O_Int (read var9 (nthAddrRange var5 (+ (* 2 var6) (- 1))))) (is-O_Int (read var9 (nthAddrRange var5 (+ (* 2 var6) (- 1))))))) (and (and (and (and (= var2 (write var9 (nthAddrRange var5 (+ (* 2 var6) (- 1))) (O_Int (+ (* 2 var6) (- 1))))) (= var4 var8)) (= var1 var7)) (= var3 var6)) (= var0 var5)))))) (inv_main43 var2 var4 var1 0 var0))))
(assert (forall ((var0 AddrRange) (var1 Int) (var2 Heap) (var3 Int) (var4 Int) (var5 Int) (var6 AddrRange) (var7 Int) (var8 Int) (var9 Int) (var10 Heap) (var11 Int)) (or (not (and (inv_main35 var10 var9 var8 var7 var6) (and (<= 0 (+ var5 (- 1))) (and (not (or (not (and (and (and (<= 0 (+ (+ 2 (* (- 1) (+ var5 (* (- 2) var11)))) (- 1))) (<= 0 (+ (+ 2 (* 1 (+ var5 (* (- 2) var11)))) (- 1)))) (or (not (<= 0 (+ (+ var5 (* (- 2) var11)) (- 1)))) (<= 0 (+ var5 (- 1))))) (or (not (<= 0 (+ (* (- 1) (+ var5 (* (- 2) var11))) (- 1)))) (<= 0 (+ (* (- 1) var5) (- 1)))))) (<= 0 (+ var11 (* (- 1) (+ var4 1)))))) (and (and (not (<= 0 (+ (+ var3 (* (- 1) (+ (* 2 var4) (- 1)))) (- 1)))) (is-O_Int (read var10 (nthAddrRange var6 (+ (* 2 var7) (- 1)))))) (and (and (and (and (and (= var2 var10) (= var5 var9)) (= var1 var8)) (= var4 var7)) (= var0 var6)) (= var3 (getInt (read var10 (nthAddrRange var6 (+ (* 2 var7) (- 1)))))))))))) (inv_main43 var2 var5 var1 0 var0))))
(assert (forall ((var0 AddrRange) (var1 Int) (var2 Int) (var3 Heap) (var4 Int) (var5 Int) (var6 AddrRange) (var7 Int) (var8 Int) (var9 Int) (var10 Heap) (var11 Int) (var12 Int) (var13 Int) (var14 Int) (var15 Int) (var16 Int) (var17 Int)) (or (not (and (inv_main15 var10 var9 var8 var7 var6) (and (and (and (and (and (<= 0 (+ (+ 2 (* (- 1) (+ var5 (* (- 2) var11)))) (- 1))) (<= 0 (+ (+ 2 (* 1 (+ var5 (* (- 2) var11)))) (- 1)))) (or (not (<= 0 (+ (+ var5 (* (- 2) var11)) (- 1)))) (<= 0 (+ var5 (- 1))))) (or (not (<= 0 (+ (* (- 1) (+ var5 (* (- 2) var11))) (- 1)))) (<= 0 (+ (* (- 1) var5) (- 1))))) (<= 0 (+ var11 (- 1)))) (and (and (not (= var4 0)) (and (and (and (and (and (= var3 var10) (= var5 var9)) (= var2 var8)) (= var1 var7)) (= var0 var6)) (or (and (and (and (and (and (and (<= 0 (+ (+ 2 (* (- 1) var12)) (- 1))) (<= 0 (+ (+ 2 (* 1 var12)) (- 1)))) (or (not (<= 0 (+ var12 (- 1)))) (<= 0 (+ var9 (- 1))))) (or (not (<= 0 (+ (* (- 1) var12) (- 1)))) (<= 0 (+ (* (- 1) var9) (- 1))))) (= var9 (+ (* 2 var13) var12))) (= var12 0)) (= var4 1)) (and (not (or (not (and (and (and (and (<= 0 (+ (+ 2 (* (- 1) var14)) (- 1))) (<= 0 (+ (+ 2 (* 1 var14)) (- 1)))) (or (not (<= 0 (+ var14 (- 1)))) (<= 0 (+ var9 (- 1))))) (or (not (<= 0 (+ (* (- 1) var14) (- 1)))) (<= 0 (+ (* (- 1) var9) (- 1))))) (= var9 (+ (* 2 var15) var14)))) (= var14 0))) (= var4 0))))) (and (and (and (and (and (and (<= 0 (+ (+ 2 (* (- 1) var16)) (- 1))) (<= 0 (+ (+ 2 (* 1 var16)) (- 1)))) (or (not (<= 0 (+ var16 (- 1)))) (<= 0 (+ var9 (- 1))))) (or (not (<= 0 (+ (* (- 1) var16) (- 1)))) (<= 0 (+ (* (- 1) var9) (- 1))))) (= var9 (+ (* 2 var17) var16))) (= var16 0)) (not (<= 0 (+ (+ var9 (* (- 1) var7)) (- 1))))))))) (inv_main32 var3 var5 var2 1 var0))))
(assert (forall ((var0 AddrRange) (var1 Int) (var2 Heap) (var3 Int) (var4 Int) (var5 AddrRange) (var6 Int) (var7 Int) (var8 Int) (var9 Heap) (var10 Int)) (or (not (and (inv_main39 var9 var8 var7 var6 var5) (and (and (and (and (and (and (<= 0 (+ (+ 2 (* (- 1) (+ var4 (* (- 2) var10)))) (- 1))) (<= 0 (+ (+ 2 (* 1 (+ var4 (* (- 2) var10)))) (- 1)))) (or (not (<= 0 (+ (+ var4 (* (- 2) var10)) (- 1)))) (<= 0 (+ var4 (- 1))))) (or (not (<= 0 (+ (* (- 1) (+ var4 (* (- 2) var10))) (- 1)))) (<= 0 (+ (* (- 1) var4) (- 1))))) (<= 0 (+ var10 (* (- 1) (+ var3 1))))) (and (is-O_Int (read var9 (nthAddrRange var5 (+ (* 2 var6) (- 1))))) (is-O_Int (read var9 (nthAddrRange var5 (+ (* 2 var6) (- 1))))))) (and (and (and (and (= var2 (write var9 (nthAddrRange var5 (+ (* 2 var6) (- 1))) (O_Int (+ (* 2 var6) (- 1))))) (= var4 var8)) (= var1 var7)) (= var3 var6)) (= var0 var5))))) (inv_main32 var2 var4 var1 (+ var3 1) var0))))
(assert (forall ((var0 AddrRange) (var1 Int) (var2 Heap) (var3 Int) (var4 Int) (var5 Int) (var6 AddrRange) (var7 Int) (var8 Int) (var9 Int) (var10 Heap) (var11 Int)) (or (not (and (inv_main35 var10 var9 var8 var7 var6) (and (and (and (and (and (<= 0 (+ (+ 2 (* (- 1) (+ var5 (* (- 2) var11)))) (- 1))) (<= 0 (+ (+ 2 (* 1 (+ var5 (* (- 2) var11)))) (- 1)))) (or (not (<= 0 (+ (+ var5 (* (- 2) var11)) (- 1)))) (<= 0 (+ var5 (- 1))))) (or (not (<= 0 (+ (* (- 1) (+ var5 (* (- 2) var11))) (- 1)))) (<= 0 (+ (* (- 1) var5) (- 1))))) (<= 0 (+ var11 (* (- 1) (+ var4 1))))) (and (and (not (<= 0 (+ (+ var3 (* (- 1) (+ (* 2 var4) (- 1)))) (- 1)))) (is-O_Int (read var10 (nthAddrRange var6 (+ (* 2 var7) (- 1)))))) (and (and (and (and (and (= var2 var10) (= var5 var9)) (= var1 var8)) (= var4 var7)) (= var0 var6)) (= var3 (getInt (read var10 (nthAddrRange var6 (+ (* 2 var7) (- 1))))))))))) (inv_main32 var2 var5 var1 (+ var4 1) var0))))
(assert (forall ((var0 AddrRange) (var1 Int) (var2 Int) (var3 Int) (var4 Heap)) (not (and (inv_main18 var4 var3 var2 var1 var0) (not (is-O_Int (read var4 (nthAddrRange var0 var1))))))))
(assert (forall ((var0 AddrRange) (var1 Int) (var2 Int) (var3 Int) (var4 Heap)) (not (and (inv_main18 var4 var3 var2 var1 var0) (and (is-O_Int (read var4 (nthAddrRange var0 var1))) (not (within var0 (nthAddrRange var0 var1))))))))
(assert (forall ((var0 AddrRange) (var1 Int) (var2 Int) (var3 Int) (var4 Heap)) (not (and (inv_main18 var4 var3 var2 var1 var0) (and (is-O_Int (read var4 (nthAddrRange var0 var1))) (not (is-O_Int (read var4 (nthAddrRange var0 var1)))))))))
(assert (forall ((var0 AddrRange) (var1 Int) (var2 Int) (var3 Int) (var4 Heap)) (not (and (inv_main32 var4 var3 var2 var1 var0) (not (is-O_Int (read var4 (nthAddrRange var0 (+ (* 2 var1) (- 2))))))))))
(assert (forall ((var0 AddrRange) (var1 Int) (var2 Int) (var3 Int) (var4 Heap)) (not (and (inv_main32 var4 var3 var2 var1 var0) (and (is-O_Int (read var4 (nthAddrRange var0 (+ (* 2 var1) (- 2))))) (not (within var0 (nthAddrRange var0 (+ (* 2 var1) (- 2))))))))))
(assert (forall ((var0 AddrRange) (var1 Int) (var2 Int) (var3 Int) (var4 Heap)) (not (and (inv_main36 var4 var3 var2 var1 var0) (not (is-O_Int (read var4 (nthAddrRange var0 (+ (* 2 var1) (- 2))))))))))
(assert (forall ((var0 AddrRange) (var1 Int) (var2 Int) (var3 Int) (var4 Heap)) (not (and (inv_main36 var4 var3 var2 var1 var0) (and (is-O_Int (read var4 (nthAddrRange var0 (+ (* 2 var1) (- 2))))) (not (within var0 (nthAddrRange var0 (+ (* 2 var1) (- 2))))))))))
(assert (forall ((var0 AddrRange) (var1 Int) (var2 Int) (var3 Int) (var4 Heap)) (not (and (inv_main36 var4 var3 var2 var1 var0) (and (is-O_Int (read var4 (nthAddrRange var0 (+ (* 2 var1) (- 2))))) (not (is-O_Int (read var4 (nthAddrRange var0 (+ (* 2 var1) (- 2)))))))))))
(assert (forall ((var0 AddrRange) (var1 Int) (var2 Int) (var3 Int) (var4 Heap)) (not (and (inv_main35 var4 var3 var2 var1 var0) (not (is-O_Int (read var4 (nthAddrRange var0 (+ (* 2 var1) (- 1))))))))))
(assert (forall ((var0 AddrRange) (var1 Int) (var2 Int) (var3 Int) (var4 Heap)) (not (and (inv_main35 var4 var3 var2 var1 var0) (and (is-O_Int (read var4 (nthAddrRange var0 (+ (* 2 var1) (- 1))))) (not (within var0 (nthAddrRange var0 (+ (* 2 var1) (- 1))))))))))
(assert (forall ((var0 AddrRange) (var1 Int) (var2 Int) (var3 Int) (var4 Heap)) (not (and (inv_main39 var4 var3 var2 var1 var0) (not (is-O_Int (read var4 (nthAddrRange var0 (+ (* 2 var1) (- 1))))))))))
(assert (forall ((var0 AddrRange) (var1 Int) (var2 Int) (var3 Int) (var4 Heap)) (not (and (inv_main39 var4 var3 var2 var1 var0) (and (is-O_Int (read var4 (nthAddrRange var0 (+ (* 2 var1) (- 1))))) (not (within var0 (nthAddrRange var0 (+ (* 2 var1) (- 1))))))))))
(assert (forall ((var0 AddrRange) (var1 Int) (var2 Int) (var3 Int) (var4 Heap)) (not (and (inv_main39 var4 var3 var2 var1 var0) (and (is-O_Int (read var4 (nthAddrRange var0 (+ (* 2 var1) (- 1))))) (not (is-O_Int (read var4 (nthAddrRange var0 (+ (* 2 var1) (- 1)))))))))))
(assert (forall ((var0 AddrRange) (var1 Int) (var2 Int) (var3 Int) (var4 Heap)) (not (and (inv_main43 var4 var3 var2 var1 var0) (not (is-O_Int (read var4 (nthAddrRange var0 var1))))))))
(assert (forall ((var0 AddrRange) (var1 Int) (var2 Int) (var3 Int) (var4 Heap)) (not (and (inv_main43 var4 var3 var2 var1 var0) (not (within var0 (nthAddrRange var0 var1)))))))
(assert (forall ((var0 AddrRange) (var1 Int) (var2 Int) (var3 Int) (var4 Heap)) (not (and (inv_main43 var4 var3 var2 var1 var0) (not (is-O_Int (read var4 (nthAddrRange var0 var1))))))))
(assert (forall ((var0 AddrRange) (var1 Int) (var2 Int) (var3 Int) (var4 Heap)) (not (and (inv_main43 var4 var3 var2 var1 var0) (and (is-O_Int (read var4 (nthAddrRange var0 var1))) (not (within var0 (nthAddrRange var0 var1))))))))
(assert (forall ((var0 AddrRange) (var1 Int) (var2 Int) (var3 Int) (var4 Heap)) (not (and (inv_main43 var4 var3 var2 var1 var0) (and (is-O_Int (read var4 (nthAddrRange var0 var1))) (not (<= 0 (+ var1 (* (- 1) (getInt (read var4 (nthAddrRange var0 var1))))))))))))
(check-sat)
